NAME          
ROWS
 N  OBJ
 L  c1
COLUMNS
    MARKER    'MARKER'                 'INTORG'
    x[1]      c1        297
    x[1]      OBJ       -262
    x[2]      c1        833
    x[2]      OBJ       -762
    x[3]      c1        973
    x[3]      OBJ       -154
    x[4]      c1        795
    x[4]      OBJ       -27
    x[5]      c1        373
    x[5]      OBJ       -740
    x[6]      c1        325
    x[6]      OBJ       -929
    x[7]      c1        75
    x[7]      OBJ       -607
    x[8]      c1        817
    x[8]      OBJ       -208
    x[9]      c1        731
    x[9]      OBJ       -10
    x[10]     c1        663
    x[10]     OBJ       -378
    x[11]     c1        1
    x[11]     OBJ       -548
    x[12]     c1        78
    x[12]     OBJ       -815
    x[13]     c1        449
    x[13]     OBJ       -203
    x[14]     c1        530
    x[14]     OBJ       -72
    x[15]     c1        299
    x[15]     OBJ       -585
    x[16]     c1        388
    x[16]     OBJ       -382
    x[17]     c1        144
    x[17]     OBJ       -527
    x[18]     c1        533
    x[18]     OBJ       -316
    x[19]     c1        960
    x[19]     OBJ       -968
    x[20]     c1        267
    x[20]     OBJ       -238
    x[21]     c1        177
    x[21]     OBJ       -522
    x[22]     c1        55
    x[22]     OBJ       -890
    x[23]     c1        294
    x[23]     OBJ       -357
    x[24]     c1        290
    x[24]     OBJ       -124
    x[25]     c1        756
    x[25]     OBJ       -140
    x[26]     c1        7
    x[26]     OBJ       -168
    x[27]     c1        791
    x[27]     OBJ       -107
    x[28]     c1        483
    x[28]     OBJ       -60
    x[29]     c1        736
    x[29]     OBJ       -361
    x[30]     c1        18
    x[30]     OBJ       -49
    x[31]     c1        188
    x[31]     OBJ       -867
    x[32]     c1        723
    x[32]     OBJ       -687
    x[33]     c1        195
    x[33]     OBJ       -668
    x[34]     c1        160
    x[34]     OBJ       -912
    x[35]     c1        981
    x[35]     OBJ       -487
    x[36]     c1        816
    x[36]     OBJ       -693
    x[37]     c1        339
    x[37]     OBJ       -72
    x[38]     c1        577
    x[38]     OBJ       -179
    x[39]     c1        70
    x[39]     OBJ       -828
    x[40]     c1        666
    x[40]     OBJ       -486
    x[41]     c1        752
    x[41]     OBJ       -981
    x[42]     c1        421
    x[42]     OBJ       -840
    x[43]     c1        156
    x[43]     OBJ       -892
    x[44]     c1        64
    x[44]     OBJ       -476
    x[45]     c1        795
    x[45]     OBJ       -393
    x[46]     c1        424
    x[46]     OBJ       -936
    x[47]     c1        404
    x[47]     OBJ       -913
    x[48]     c1        910
    x[48]     OBJ       -704
    x[49]     c1        748
    x[49]     OBJ       -475
    x[50]     c1        849
    x[50]     OBJ       -42
    x[51]     c1        67
    x[51]     OBJ       -816
    x[52]     c1        425
    x[52]     OBJ       -938
    x[53]     c1        658
    x[53]     OBJ       -182
    x[54]     c1        366
    x[54]     OBJ       -184
    x[55]     c1        609
    x[55]     OBJ       -875
    x[56]     c1        472
    x[56]     OBJ       -96
    x[57]     c1        76
    x[57]     OBJ       -42
    x[58]     c1        569
    x[58]     OBJ       -161
    x[59]     c1        77
    x[59]     OBJ       -623
    x[60]     c1        948
    x[60]     OBJ       -1
    x[61]     c1        805
    x[61]     OBJ       -51
    x[62]     c1        692
    x[62]     OBJ       -610
    x[63]     c1        877
    x[63]     OBJ       -663
    x[64]     c1        177
    x[64]     OBJ       -699
    x[65]     c1        21
    x[65]     OBJ       -448
    x[66]     c1        797
    x[66]     OBJ       -903
    x[67]     c1        86
    x[67]     OBJ       -567
    x[68]     c1        775
    x[68]     OBJ       -906
    x[69]     c1        511
    x[69]     OBJ       -221
    x[70]     c1        627
    x[70]     OBJ       -875
    x[71]     c1        80
    x[71]     OBJ       -608
    x[72]     c1        649
    x[72]     OBJ       -744
    x[73]     c1        189
    x[73]     OBJ       -872
    x[74]     c1        772
    x[74]     OBJ       -247
    x[75]     c1        539
    x[75]     OBJ       -70
    x[76]     c1        74
    x[76]     OBJ       -830
    x[77]     c1        61
    x[77]     OBJ       -586
    x[78]     c1        60
    x[78]     OBJ       -112
    x[79]     c1        774
    x[79]     OBJ       -456
    x[80]     c1        525
    x[80]     OBJ       -521
    x[81]     c1        232
    x[81]     OBJ       -442
    x[82]     c1        963
    x[82]     OBJ       -370
    x[83]     c1        559
    x[83]     OBJ       -753
    x[84]     c1        304
    x[84]     OBJ       -464
    x[85]     c1        509
    x[85]     OBJ       -27
    x[86]     c1        417
    x[86]     OBJ       -237
    x[87]     c1        824
    x[87]     OBJ       -556
    x[88]     c1        862
    x[88]     OBJ       -843
    x[89]     c1        840
    x[89]     OBJ       -404
    x[90]     c1        424
    x[90]     OBJ       -203
    x[91]     c1        658
    x[91]     OBJ       -812
    x[92]     c1        177
    x[92]     OBJ       -760
    x[93]     c1        995
    x[93]     OBJ       -838
    x[94]     c1        448
    x[94]     OBJ       -725
    x[95]     c1        845
    x[95]     OBJ       -183
    x[96]     c1        211
    x[96]     OBJ       -704
    x[97]     c1        514
    x[97]     OBJ       -648
    x[98]     c1        639
    x[98]     OBJ       -571
    x[99]     c1        229
    x[99]     OBJ       -377
    x[100]    c1        114
    x[100]    OBJ       -52
RHS
    rhs       c1        23749
RANGES
BOUNDS
 LO bounds    x[1]      0
 PL bounds    x[1]
 LO bounds    x[2]      0
 PL bounds    x[2]
 LO bounds    x[3]      0
 PL bounds    x[3]
 LO bounds    x[4]      0
 PL bounds    x[4]
 LO bounds    x[5]      0
 PL bounds    x[5]
 LO bounds    x[6]      0
 PL bounds    x[6]
 LO bounds    x[7]      0
 PL bounds    x[7]
 LO bounds    x[8]      0
 PL bounds    x[8]
 LO bounds    x[9]      0
 PL bounds    x[9]
 LO bounds    x[10]     0
 PL bounds    x[10]
 LO bounds    x[11]     0
 PL bounds    x[11]
 LO bounds    x[12]     0
 PL bounds    x[12]
 LO bounds    x[13]     0
 PL bounds    x[13]
 LO bounds    x[14]     0
 PL bounds    x[14]
 LO bounds    x[15]     0
 PL bounds    x[15]
 LO bounds    x[16]     0
 PL bounds    x[16]
 LO bounds    x[17]     0
 PL bounds    x[17]
 LO bounds    x[18]     0
 PL bounds    x[18]
 LO bounds    x[19]     0
 PL bounds    x[19]
 LO bounds    x[20]     0
 PL bounds    x[20]
 LO bounds    x[21]     0
 PL bounds    x[21]
 LO bounds    x[22]     0
 PL bounds    x[22]
 LO bounds    x[23]     0
 PL bounds    x[23]
 LO bounds    x[24]     0
 PL bounds    x[24]
 LO bounds    x[25]     0
 PL bounds    x[25]
 LO bounds    x[26]     0
 PL bounds    x[26]
 LO bounds    x[27]     0
 PL bounds    x[27]
 LO bounds    x[28]     0
 PL bounds    x[28]
 LO bounds    x[29]     0
 PL bounds    x[29]
 LO bounds    x[30]     0
 PL bounds    x[30]
 LO bounds    x[31]     0
 PL bounds    x[31]
 LO bounds    x[32]     0
 PL bounds    x[32]
 LO bounds    x[33]     0
 PL bounds    x[33]
 LO bounds    x[34]     0
 PL bounds    x[34]
 LO bounds    x[35]     0
 PL bounds    x[35]
 LO bounds    x[36]     0
 PL bounds    x[36]
 LO bounds    x[37]     0
 PL bounds    x[37]
 LO bounds    x[38]     0
 PL bounds    x[38]
 LO bounds    x[39]     0
 PL bounds    x[39]
 LO bounds    x[40]     0
 PL bounds    x[40]
 LO bounds    x[41]     0
 PL bounds    x[41]
 LO bounds    x[42]     0
 PL bounds    x[42]
 LO bounds    x[43]     0
 PL bounds    x[43]
 LO bounds    x[44]     0
 PL bounds    x[44]
 LO bounds    x[45]     0
 PL bounds    x[45]
 LO bounds    x[46]     0
 PL bounds    x[46]
 LO bounds    x[47]     0
 PL bounds    x[47]
 LO bounds    x[48]     0
 PL bounds    x[48]
 LO bounds    x[49]     0
 PL bounds    x[49]
 LO bounds    x[50]     0
 PL bounds    x[50]
 LO bounds    x[51]     0
 PL bounds    x[51]
 LO bounds    x[52]     0
 PL bounds    x[52]
 LO bounds    x[53]     0
 PL bounds    x[53]
 LO bounds    x[54]     0
 PL bounds    x[54]
 LO bounds    x[55]     0
 PL bounds    x[55]
 LO bounds    x[56]     0
 PL bounds    x[56]
 LO bounds    x[57]     0
 PL bounds    x[57]
 LO bounds    x[58]     0
 PL bounds    x[58]
 LO bounds    x[59]     0
 PL bounds    x[59]
 LO bounds    x[60]     0
 PL bounds    x[60]
 LO bounds    x[61]     0
 PL bounds    x[61]
 LO bounds    x[62]     0
 PL bounds    x[62]
 LO bounds    x[63]     0
 PL bounds    x[63]
 LO bounds    x[64]     0
 PL bounds    x[64]
 LO bounds    x[65]     0
 PL bounds    x[65]
 LO bounds    x[66]     0
 PL bounds    x[66]
 LO bounds    x[67]     0
 PL bounds    x[67]
 LO bounds    x[68]     0
 PL bounds    x[68]
 LO bounds    x[69]     0
 PL bounds    x[69]
 LO bounds    x[70]     0
 PL bounds    x[70]
 LO bounds    x[71]     0
 PL bounds    x[71]
 LO bounds    x[72]     0
 PL bounds    x[72]
 LO bounds    x[73]     0
 PL bounds    x[73]
 LO bounds    x[74]     0
 PL bounds    x[74]
 LO bounds    x[75]     0
 PL bounds    x[75]
 LO bounds    x[76]     0
 PL bounds    x[76]
 LO bounds    x[77]     0
 PL bounds    x[77]
 LO bounds    x[78]     0
 PL bounds    x[78]
 LO bounds    x[79]     0
 PL bounds    x[79]
 LO bounds    x[80]     0
 PL bounds    x[80]
 LO bounds    x[81]     0
 PL bounds    x[81]
 LO bounds    x[82]     0
 PL bounds    x[82]
 LO bounds    x[83]     0
 PL bounds    x[83]
 LO bounds    x[84]     0
 PL bounds    x[84]
 LO bounds    x[85]     0
 PL bounds    x[85]
 LO bounds    x[86]     0
 PL bounds    x[86]
 LO bounds    x[87]     0
 PL bounds    x[87]
 LO bounds    x[88]     0
 PL bounds    x[88]
 LO bounds    x[89]     0
 PL bounds    x[89]
 LO bounds    x[90]     0
 PL bounds    x[90]
 LO bounds    x[91]     0
 PL bounds    x[91]
 LO bounds    x[92]     0
 PL bounds    x[92]
 LO bounds    x[93]     0
 PL bounds    x[93]
 LO bounds    x[94]     0
 PL bounds    x[94]
 LO bounds    x[95]     0
 PL bounds    x[95]
 LO bounds    x[96]     0
 PL bounds    x[96]
 LO bounds    x[97]     0
 PL bounds    x[97]
 LO bounds    x[98]     0
 PL bounds    x[98]
 LO bounds    x[99]     0
 PL bounds    x[99]
 LO bounds    x[100]    0
 PL bounds    x[100]
ENDATA
